NAME : burma30
TYPE : TSP
COMMENT : 30-Staedte in Burma (Zaw Win)
DIMENSION : 30
EDGE_WEIGHT_TYPE : EUC_2D
NODE_COORD_SECTION
1 46.18 23.43
2 46.04 23.35
3 43.59 25.20
4 46.11 21.19
5 46.34 26.54
6 47.40 23.35
7 45.02 25.51
8 44.01 23.21
9 44.21 24.06
10 46.14 27.40
11 47.08 24.29
12 46.11 23.55
13 47.39 24.40
14 47.45 26.40
15 45.16 27.59
16 45.38 25.35
17 44.26 26.06
18 44.34 25.57
19 46.43 26.42
20 45.09 26.50
21 44.12 27.20
22 47.32 25.34
23 44.07 24.21
24 45.25 22.13
25 47.41 22.28
26 46.33 23.53
27 45.16 25.03
28 46.46 23.36
29 45.42 25.27
30 47.09 23.52
EOF